c Output_time 26.03.2020 18:13:21_+0100 1585242801145896993
c ** Program information **
c program_name                          "QBRG_debug"
c version                               "0.3.20"
c date                                  "25.3.2020"
c gid_id                                "673970833836058123f633335630c185360d632e"
c author                                "Oliver Kullmann"
c url                                   "https://github.com/OKullmann/oklibrary/blob/master/Satisfiability/Transformers/Generators/Random/QBRG.cpp"
c ** Machine information **
c machine_name                          "chyna-Lenovo-G50-70"
c bogomips                              3791.08
c ** Compilation information **
c compiler_version                      "g++ 7.5.0"
c compilation_date                      "Mar_26_2020 11:16:30"
c compilation_options                   "--std=c++17 -pedantic -fmax-errors=5 -Wall -Wextra -g -D_GLIBCXX_DEBUG"
c NDEBUG                                0
c OPTIMIZE                              0
c ** Parameters **
c command-line                          "./QBRG_debug" "e40 a40 40" "429*1,1|2-2,1|3-3,1" "" "1,t" ""
c output                                "QuBlRaGe_120_429_1585242800995932470.qdimacs"
c options                               "filtered,renamed"
c num_quantifier_blocks                 3
c  quantifier_blocks                    1:e1-40 2:a41-80 3:e81-120
c num_clause-blocks                     1
c  clause-blocks                        429 * {1-40,1,1/2} | {41-80,1,1/2} | {81-120,1,1/2}
c num_e-seeds                           30+2=32
c  e-seeds                              1 0 1 0 4 120 2 40 1 40 0 40 1 429 3 1 1 1 1 2 2 2 1 1 2 3 3 1 1 2 1 1585242800995931763
p cnf 120 429
e 1 2 3 4 5 6 7 8 9 10 11 12 13 14 15 16 17 18 19 20 21 22 23 24 25 26 27 28 29 30 31 32 33 34 35 36 37 38 39 40 0
a 41 42 43 44 45 46 47 48 49 50 51 52 53 54 55 56 57 58 59 60 61 62 63 64 65 66 67 68 69 70 71 72 73 74 75 76 77 78 79 80 0
e 81 82 83 84 85 86 87 88 89 90 91 92 93 94 95 96 97 98 99 100 101 102 103 104 105 106 107 108 109 110 111 112 113 114 115 116 117 118 119 120 0
-30 -49 -81 0
18 -65 -81 0
-39 -42 81 0
19 -48 81 0
29 -52 81 0
3 -55 81 0
-27 64 81 0
-38 -66 81 0
-40 -51 -82 0
-9 -58 -82 0
-2 45 -83 0
-18 -75 -83 0
1 55 83 0
-17 -65 83 0
34 -73 83 0
4 -76 83 0
27 45 -84 0
-10 -52 -84 0
-40 58 -84 0
13 -61 -84 0
8 -72 -84 0
14 73 -84 0
37 77 -84 0
7 -48 84 0
38 -56 84 0
23 -61 84 0
-31 61 84 0
37 61 84 0
-40 63 84 0
37 -66 84 0
16 -43 -85 0
35 -44 -85 0
-27 -45 -85 0
-40 60 -85 0
34 69 -85 0
-10 -70 -85 0
-20 -77 -85 0
20 77 -85 0
25 78 -85 0
37 49 85 0
13 -52 85 0
-12 55 85 0
21 -65 85 0
-1 67 85 0
-35 67 85 0
-2 68 85 0
-40 50 -86 0
-12 -60 -86 0
40 64 -86 0
-12 -65 -86 0
-23 -72 -86 0
39 78 -86 0
18 79 -86 0
-38 -41 86 0
21 -54 86 0
23 69 86 0
32 -76 86 0
14 79 86 0
14 43 -87 0
23 -50 -87 0
12 -70 -87 0
-11 74 -87 0
13 74 -87 0
38 -79 -87 0
18 -44 87 0
30 44 87 0
-9 78 87 0
-13 44 -88 0
37 -47 -88 0
-2 54 -88 0
31 55 -88 0
-8 74 -88 0
-40 76 -88 0
-24 79 -88 0
-2 -80 -88 0
-34 -44 88 0
29 59 88 0
5 60 88 0
-2 -75 88 0
-1 42 -89 0
8 49 -89 0
-24 50 -89 0
-14 78 -89 0
15 41 89 0
-16 43 89 0
18 43 89 0
21 57 89 0
8 -65 89 0
28 -53 -90 0
14 -55 -90 0
-26 -63 -90 0
-29 73 -90 0
13 -78 -90 0
7 -45 90 0
25 -45 90 0
10 45 90 0
-2 -53 90 0
-26 61 90 0
1 -71 90 0
10 71 90 0
-1 77 90 0
30 78 90 0
-28 -42 -91 0
37 -42 -91 0
34 -43 -91 0
-16 53 -91 0
-37 63 -91 0
12 74 -91 0
1 -45 91 0
14 60 91 0
16 -68 91 0
7 -72 91 0
38 -57 -92 0
-26 62 -92 0
36 -69 -92 0
-4 -70 -92 0
36 78 -92 0
37 -51 92 0
23 54 92 0
22 60 92 0
21 -66 92 0
40 -75 92 0
12 -78 92 0
3 -79 92 0
-38 -80 92 0
-40 47 -93 0
-37 58 -93 0
-28 -62 -93 0
12 62 -93 0
13 -63 -93 0
26 63 -93 0
29 -68 -93 0
-34 77 -93 0
-11 47 93 0
-11 -50 93 0
-10 -54 93 0
30 -57 93 0
-13 -65 93 0
6 72 93 0
-15 41 -94 0
23 -53 -94 0
-39 55 -94 0
22 -56 -94 0
-6 59 -94 0
17 -48 94 0
-8 -51 94 0
1 51 94 0
-15 55 94 0
-5 -61 94 0
-20 -61 94 0
26 -71 94 0
-17 -76 94 0
-17 -80 94 0
-35 -66 -95 0
-1 -50 95 0
15 54 95 0
-23 64 95 0
25 68 95 0
-33 -70 95 0
-32 -75 95 0
32 47 -96 0
31 53 -96 0
-21 64 -96 0
-14 -42 96 0
-6 -43 96 0
32 67 96 0
7 75 96 0
-12 41 -97 0
-23 52 -97 0
17 -73 -97 0
40 -55 97 0
15 63 97 0
-32 69 97 0
-1 78 97 0
15 -41 -98 0
-39 55 -98 0
27 -63 -98 0
-34 67 -98 0
21 75 -98 0
-13 -43 98 0
6 46 98 0
-23 -53 98 0
28 -61 98 0
40 -62 98 0
-36 -78 98 0
-3 -57 -99 0
4 69 -99 0
4 -74 -99 0
5 74 -99 0
-27 -79 -99 0
24 -47 99 0
31 -48 99 0
-13 62 99 0
-24 -75 99 0
35 -80 99 0
-7 52 -100 0
-25 -61 -100 0
-25 -76 -100 0
1 77 -100 0
31 44 100 0
1 -52 100 0
-23 -52 100 0
32 57 100 0
20 78 100 0
10 -48 -101 0
20 50 -101 0
-15 55 -101 0
18 -62 -101 0
28 68 -101 0
-25 -74 -101 0
-12 79 -101 0
-32 -44 101 0
22 47 101 0
11 54 101 0
24 59 101 0
-14 -66 101 0
11 80 101 0
-35 -41 -102 0
34 50 -102 0
4 50 102 0
8 59 102 0
34 61 102 0
-21 -67 102 0
31 -73 102 0
-39 -77 102 0
14 79 102 0
19 80 102 0
21 80 102 0
-2 -47 -103 0
-9 -70 -103 0
19 -74 -103 0
-22 -49 103 0
-17 -54 103 0
30 -58 103 0
4 -59 103 0
-24 -44 -104 0
-26 57 -104 0
31 68 -104 0
6 72 -104 0
-1 77 -104 0
26 -78 -104 0
7 70 104 0
7 -71 104 0
-37 -74 104 0
-5 -58 -105 0
-16 60 -105 0
-37 62 -105 0
-38 69 -105 0
-35 -71 -105 0
4 -72 -105 0
-34 -51 105 0
33 -58 105 0
16 -67 105 0
-30 42 -106 0
12 51 -106 0
-19 -65 -106 0
9 79 -106 0
35 45 106 0
23 -47 106 0
31 -48 106 0
-5 51 106 0
7 64 106 0
-16 78 106 0
-2 -44 -107 0
-25 -44 -107 0
-7 48 -107 0
16 59 -107 0
-12 61 -107 0
-19 77 -107 0
18 53 107 0
-1 -61 107 0
-25 66 107 0
9 70 107 0
23 -41 -108 0
31 -45 -108 0
-20 -53 -108 0
37 53 108 0
28 -61 108 0
32 -63 108 0
-17 66 108 0
-25 66 108 0
35 -73 108 0
40 -80 108 0
37 41 -109 0
-25 55 -109 0
-37 -56 -109 0
33 60 -109 0
8 64 -109 0
-19 65 -109 0
-9 -67 -109 0
2 -69 -109 0
-34 71 -109 0
5 -74 -109 0
31 -74 -109 0
-18 -77 -109 0
-10 78 -109 0
36 56 109 0
37 56 109 0
1 57 109 0
18 -58 109 0
36 -59 109 0
26 -61 109 0
-34 -62 109 0
-19 -48 -110 0
20 -55 -110 0
-7 56 -110 0
-12 56 -110 0
27 -63 -110 0
39 72 -110 0
-23 -47 -111 0
-34 50 -111 0
1 51 -111 0
24 53 -111 0
-19 58 -111 0
12 -59 -111 0
-10 -75 -111 0
-34 -47 111 0
-2 -55 111 0
-3 62 111 0
-5 64 111 0
8 76 111 0
-1 78 111 0
-22 -80 111 0
4 -42 -112 0
29 -43 -112 0
-27 45 -112 0
-37 53 -112 0
-14 -59 -112 0
-23 -70 -112 0
5 -43 112 0
-28 49 112 0
-34 -52 112 0
35 60 112 0
12 -61 112 0
9 -41 -113 0
17 -61 -113 0
-12 75 -113 0
-22 -76 -113 0
-38 43 113 0
8 45 113 0
-30 -61 113 0
-28 63 113 0
-36 -64 113 0
22 -72 113 0
9 73 113 0
-31 -77 113 0
-28 56 -114 0
35 58 -114 0
25 -59 -114 0
26 -59 -114 0
-10 -67 -114 0
-17 -73 -114 0
-14 75 -114 0
23 77 -114 0
33 -78 -114 0
-39 -41 114 0
-36 43 114 0
-39 48 114 0
5 -68 114 0
37 68 114 0
-13 -75 114 0
9 -41 -115 0
-20 41 -115 0
-28 45 -115 0
-35 46 -115 0
8 53 -115 0
5 56 -115 0
38 -58 -115 0
9 59 -115 0
-6 60 -115 0
14 62 -115 0
-3 63 -115 0
16 68 -115 0
11 45 115 0
36 -50 115 0
24 67 115 0
4 -44 -116 0
-36 -45 -116 0
40 -46 -116 0
-2 -65 -116 0
-14 74 -116 0
9 -50 116 0
8 -56 116 0
4 56 116 0
31 -59 116 0
-34 41 -117 0
-6 -43 -117 0
-15 -43 -117 0
-27 -43 -117 0
17 -46 -117 0
-33 -52 -117 0
-19 -78 -117 0
20 -61 117 0
-36 62 117 0
-40 68 117 0
-7 42 -118 0
12 -62 -118 0
40 77 -118 0
35 -79 -118 0
17 -47 118 0
1 62 118 0
39 -65 118 0
-30 43 -119 0
-37 -56 -119 0
-37 61 -119 0
35 -62 -119 0
-35 42 119 0
-34 -47 119 0
1 50 119 0
25 53 119 0
-29 62 119 0
-27 -65 119 0
13 -66 119 0
-22 67 119 0
-38 -51 -120 0
23 -57 -120 0
-28 57 -120 0
11 58 -120 0
-30 -59 -120 0
-21 -67 -120 0
7 -73 -120 0
3 -77 -120 0
10 77 -120 0
-29 46 120 0
-38 53 120 0
-30 55 120 0
-39 65 120 0
25 66 120 0
-31 -70 120 0
